n_res = 4;
rc = [ 28, 18, 11, 13 ];
n_tasks = 15;
d = [ 8, 6, 6, 2, 75, 150, 250, 50, 75, 150, 25, 7, 1, 8, 9 ];
rr = [| 0, 1, 0, 0, 0, 1, 1, 0, 10, 0, 10, 0, 0, 7, 0
      | 6, 0, 0, 9, 0, 0, 0, 0, 0, 0, 0, 0, 5, 0, 0
      | 0, 0, 0, 0, 0, 0, 0, 0, 0, 7, 0, 3, 0, 0, 1
      | 0, 0, 7, 0, 6, 0, 0, 5, 0, 0, 0, 0, 0, 0, 0 |];
suc = [ { 4, 8, 9 },
       { 5 },
       { 14 },
       { 11 },
       { 6, 8 },
       { 7, 12 },
       { 13 },
       {  },
       { 10, 15 },
       { 13 },
       {  },
       {  },
       {  },
       {  },
       {  } ];
